p tw 117 138
1 2
2 30
3 14
4 82
5 6
6 7
7 8
8 9
9 10
9 16
10 11
11 12
11 16
12 13
13 15
14 22
14 28
15 5
16 17
17 18
18 19
19 77
20 21
22 23
23 24
23 28
24 25
24 28
25 26
26 27
27 74
28 29
29 31
30 41
30 36
31 32
32 33
33 34
33 41
34 35
35 20
36 37
37 38
38 39
39 40
40 42
41 52
42 43
43 44
43 77
44 45
45 46
46 47
47 48
47 77
48 49
49 50
50 51
51 53
52 63
53 54
54 55
55 56
56 57
57 58
58 59
59 60
60 61
61 62
61 73
62 64
63 74
63 34
64 65
65 66
66 67
67 68
68 69
68 70
69 70
69 62
70 71
71 72
72 59
73 75
74 85
75 76
76 45
77 78
78 79
79 80
79 20
80 81
81 82
82 83
83 84
84 86
84 5
85 96
86 87
87 88
88 89
89 90
90 91
90 101
91 92
92 93
92 101
93 94
94 95
94 97
95 97
95 86
96 107
97 98
98 99
99 100
100 86
101 102
102 103
102 116
103 104
103 108
104 105
105 106
106 114
107 3
108 109
109 110
110 111
110 114
111 112
112 113
113 108
114 115
115 116
116 117
117 4
